(declare-const c_0 Real)
(declare-const c_1 Real)
(declare-const c_2 Real)
(declare-const c_3 Real)
(declare-const c_4 Real)
(declare-const c_5 Real)
(declare-const c_6 Real)
(declare-const c_7 Real)
(declare-const c_8 Real)
(declare-const c_9 Real)
(declare-const c_10 Real)
(declare-const c_11 Real)
(declare-const s_0 Real)
(declare-const s_1 Real)
(declare-const s_2 Real)
(declare-const s_3 Real)
(declare-const s_4 Real)
(declare-const s_5 Real)
(declare-const s_6 Real)
(declare-const s_7 Real)
(declare-const s_8 Real)
(declare-const s_9 Real)
(declare-const s_10 Real)
(declare-const s_11 Real)
(assert (forall ((x Real) (y Real) (N Real) ) (=> (and (>= (+ (* 1024 1) (* 1 x ) ) 0) (>= (+ (* 1023 1) (* (- 1) x ) ) 0) (>= (+ (* 1024 1) (* 1 y ) ) 0) (>= (+ (* 1023 1) (* (- 1) y ) ) 0) (>= (+ (* 1024 1) (* 1 N ) ) 0) (>= (+ (* 1023 1) (* (- 1) N ) ) 0) ) (>= (+ (* 1 N s_1 ) (* 1 s_0 ) (* 1 s_2 x ) (* 1 s_3 y ) ) 0) )))
(assert (forall ((x Real) (y Real) (N Real) ) (=> (and (>= (+ (* 1024 1) (* 1 x ) ) 0) (>= (+ (* 1023 1) (* (- 1) x ) ) 0) (>= (+ (* 1024 1) (* 1 y ) ) 0) (>= (+ (* 1023 1) (* (- 1) y ) ) 0) (>= (+ (* 1024 1) (* 1 N ) ) 0) (>= (+ (* 1023 1) (* (- 1) N ) ) 0) ) (>= (+ (* 1 N c_1 ) (* 1 c_0 ) (* 1 c_2 x ) (* 1 c_3 y ) ) 0) )))
(assert (forall ((x Real) (y Real) (N Real) ) (=> (and (>= (+ (* 1 x ) (* 1 y ) ) 0) (>= (+ (* 536870911 1) (* (- 1) N ) ) 0) (>= (+ (* 536870911 1) (* (- 1) x ) ) 0) (>= (+ (* 536870911 1) (* (- 1) y ) ) 0) (>= (+ (* 1073741824 1) (* 1 x ) ) 0) (>= (+ (* 1024 1) (* 1 x ) ) 0) (>= (+ (* 1024 1) (* 1 y ) ) 0) (>= (+ (* 1024 1) (* 1 N ) ) 0) (>= (+ (* 1023 1) (* (- 1) N ) ) 0) (>= (+ (* 1023 1) (* (- 1) y ) ) 0) (>= (+ (* 1023 1) (* (- 1) x ) ) 0) (>= (+ (* 1 N s_1 ) (* 1 s_0 ) (* 1 s_2 x ) (* 1 s_3 y ) ) 0) ) (>= (+ (* 1 N s_5 ) (* 1 s_4 ) (* 1 s_6 x ) (* 1 s_7 y ) ) 0) )))
(assert (forall ((x Real) (y Real) (N Real) ) (=> (and (>= (+ (* 1 x ) (* 1 y ) ) 0) (>= (+ (* 536870911 1) (* (- 1) N ) ) 0) (>= (+ (* 536870911 1) (* (- 1) x ) ) 0) (>= (+ (* 536870911 1) (* (- 1) y ) ) 0) (>= (+ (* 1073741824 1) (* 1 x ) ) 0) (>= (+ (* 1024 1) (* 1 x ) ) 0) (>= (+ (* 1024 1) (* 1 y ) ) 0) (>= (+ (* 1024 1) (* 1 N ) ) 0) (>= (+ (* 1023 1) (* (- 1) N ) ) 0) (>= (+ (* 1023 1) (* (- 1) y ) ) 0) (>= (+ (* 1023 1) (* (- 1) x ) ) 0) (>= (+ (* 1 N s_1 ) (* 1 s_0 ) (* 1 s_2 x ) (* 1 s_3 y ) ) 0) ) (>= (+ (* 1 N c_5 ) (* 1 c_4 ) (* 1 c_6 x ) (* 1 c_7 y ) ) 0) )))
(assert (forall ((x Real) (y Real) (N Real) ) (=> (and (>= (+ (* 1 x ) (* 1 y ) ) 0) (>= (+ (* 536870911 1) (* (- 1) N ) ) 0) (>= (+ (* 536870911 1) (* (- 1) x ) ) 0) (>= (+ (* 536870911 1) (* (- 1) y ) ) 0) (>= (+ (* 1073741824 1) (* 1 x ) ) 0) (>= (+ (* 1024 1) (* 1 x ) ) 0) (>= (+ (* 1024 1) (* 1 y ) ) 0) (>= (+ (* 1024 1) (* 1 N ) ) 0) (>= (+ (* 1023 1) (* (- 1) N ) ) 0) (>= (+ (* 1023 1) (* (- 1) y ) ) 0) (>= (+ (* 1023 1) (* (- 1) x ) ) 0) (>= (+ (* 1 N s_1 ) (* 1 s_0 ) (* 1 s_2 x ) (* 1 s_3 y ) ) 0) ) (>= (+ (* (- 1) 1) (* 1 N c_1 ) (* (- 1) N c_5 ) (* 1 c_0 ) (* 1 c_2 x ) (* 1 c_3 y ) (* (- 1) c_4 ) (* (- 1) c_6 x ) (* (- 1) c_7 y ) ) 0) )))
(assert (forall ((x Real) (y Real) (N Real) ) (=> (and (>= (+ (* (- 1) 1) (* (- 1) x ) (* (- 1) y ) ) 0) (>= (+ (* 536870911 1) (* (- 1) N ) ) 0) (>= (+ (* 536870911 1) (* (- 1) x ) ) 0) (>= (+ (* 536870911 1) (* (- 1) y ) ) 0) (>= (+ (* 1073741824 1) (* 1 x ) ) 0) (>= (+ (* 1024 1) (* 1 x ) ) 0) (>= (+ (* 1024 1) (* 1 y ) ) 0) (>= (+ (* 1024 1) (* 1 N ) ) 0) (>= (+ (* 1023 1) (* (- 1) N ) ) 0) (>= (+ (* 1023 1) (* (- 1) y ) ) 0) (>= (+ (* 1023 1) (* (- 1) x ) ) 0) (>= (+ (* 1 N s_1 ) (* 1 s_0 ) (* 1 s_2 x ) (* 1 s_3 y ) ) 0) ) (>= (+ (* 1 N s_9 ) (* 1 s_10 x ) (* 1 s_11 y ) (* 1 s_8 ) ) 0) )))
(assert (forall ((x Real) (y Real) (N Real) ) (=> (and (>= (+ (* (- 1) 1) (* (- 1) x ) (* (- 1) y ) ) 0) (>= (+ (* 536870911 1) (* (- 1) N ) ) 0) (>= (+ (* 536870911 1) (* (- 1) x ) ) 0) (>= (+ (* 536870911 1) (* (- 1) y ) ) 0) (>= (+ (* 1073741824 1) (* 1 x ) ) 0) (>= (+ (* 1024 1) (* 1 x ) ) 0) (>= (+ (* 1024 1) (* 1 y ) ) 0) (>= (+ (* 1024 1) (* 1 N ) ) 0) (>= (+ (* 1023 1) (* (- 1) N ) ) 0) (>= (+ (* 1023 1) (* (- 1) y ) ) 0) (>= (+ (* 1023 1) (* (- 1) x ) ) 0) (>= (+ (* 1 N s_1 ) (* 1 s_0 ) (* 1 s_2 x ) (* 1 s_3 y ) ) 0) ) (>= (+ (* 1 N c_9 ) (* 1 c_10 x ) (* 1 c_11 y ) (* 1 c_8 ) ) 0) )))
(assert (forall ((x Real) (y Real) (N Real) ) (=> (and (>= (+ (* (- 536870912) 1) (* 1 N ) ) 0) (>= (+ (* 1024 1) (* 1 x ) ) 0) (>= (+ (* 1024 1) (* 1 y ) ) 0) (>= (+ (* 1024 1) (* 1 N ) ) 0) (>= (+ (* 1023 1) (* (- 1) N ) ) 0) (>= (+ (* 1023 1) (* (- 1) y ) ) 0) (>= (+ (* 1023 1) (* (- 1) x ) ) 0) (>= (+ (* 1 N s_1 ) (* 1 s_0 ) (* 1 s_2 x ) (* 1 s_3 y ) ) 0) ) (>= (+ (* 1 N s_9 ) (* 1 s_10 x ) (* 1 s_11 y ) (* 1 s_8 ) ) 0) )))
(assert (forall ((x Real) (y Real) (N Real) ) (=> (and (>= (+ (* (- 536870912) 1) (* 1 N ) ) 0) (>= (+ (* 1024 1) (* 1 x ) ) 0) (>= (+ (* 1024 1) (* 1 y ) ) 0) (>= (+ (* 1024 1) (* 1 N ) ) 0) (>= (+ (* 1023 1) (* (- 1) N ) ) 0) (>= (+ (* 1023 1) (* (- 1) y ) ) 0) (>= (+ (* 1023 1) (* (- 1) x ) ) 0) (>= (+ (* 1 N s_1 ) (* 1 s_0 ) (* 1 s_2 x ) (* 1 s_3 y ) ) 0) ) (>= (+ (* 1 N c_9 ) (* 1 c_10 x ) (* 1 c_11 y ) (* 1 c_8 ) ) 0) )))
(assert (forall ((x Real) (y Real) (N Real) ) (=> (and (>= (+ (* (- 536870912) 1) (* 1 x ) ) 0) (>= (+ (* 1024 1) (* 1 x ) ) 0) (>= (+ (* 1024 1) (* 1 y ) ) 0) (>= (+ (* 1024 1) (* 1 N ) ) 0) (>= (+ (* 1023 1) (* (- 1) N ) ) 0) (>= (+ (* 1023 1) (* (- 1) y ) ) 0) (>= (+ (* 1023 1) (* (- 1) x ) ) 0) (>= (+ (* 1 N s_1 ) (* 1 s_0 ) (* 1 s_2 x ) (* 1 s_3 y ) ) 0) ) (>= (+ (* 1 N s_9 ) (* 1 s_10 x ) (* 1 s_11 y ) (* 1 s_8 ) ) 0) )))
(assert (forall ((x Real) (y Real) (N Real) ) (=> (and (>= (+ (* (- 536870912) 1) (* 1 x ) ) 0) (>= (+ (* 1024 1) (* 1 x ) ) 0) (>= (+ (* 1024 1) (* 1 y ) ) 0) (>= (+ (* 1024 1) (* 1 N ) ) 0) (>= (+ (* 1023 1) (* (- 1) N ) ) 0) (>= (+ (* 1023 1) (* (- 1) y ) ) 0) (>= (+ (* 1023 1) (* (- 1) x ) ) 0) (>= (+ (* 1 N s_1 ) (* 1 s_0 ) (* 1 s_2 x ) (* 1 s_3 y ) ) 0) ) (>= (+ (* 1 N c_9 ) (* 1 c_10 x ) (* 1 c_11 y ) (* 1 c_8 ) ) 0) )))
(assert (forall ((x Real) (y Real) (N Real) ) (=> (and (>= (+ (* (- 536870912) 1) (* 1 y ) ) 0) (>= (+ (* 1024 1) (* 1 x ) ) 0) (>= (+ (* 1024 1) (* 1 y ) ) 0) (>= (+ (* 1024 1) (* 1 N ) ) 0) (>= (+ (* 1023 1) (* (- 1) N ) ) 0) (>= (+ (* 1023 1) (* (- 1) y ) ) 0) (>= (+ (* 1023 1) (* (- 1) x ) ) 0) (>= (+ (* 1 N s_1 ) (* 1 s_0 ) (* 1 s_2 x ) (* 1 s_3 y ) ) 0) ) (>= (+ (* 1 N s_9 ) (* 1 s_10 x ) (* 1 s_11 y ) (* 1 s_8 ) ) 0) )))
(assert (forall ((x Real) (y Real) (N Real) ) (=> (and (>= (+ (* (- 536870912) 1) (* 1 y ) ) 0) (>= (+ (* 1024 1) (* 1 x ) ) 0) (>= (+ (* 1024 1) (* 1 y ) ) 0) (>= (+ (* 1024 1) (* 1 N ) ) 0) (>= (+ (* 1023 1) (* (- 1) N ) ) 0) (>= (+ (* 1023 1) (* (- 1) y ) ) 0) (>= (+ (* 1023 1) (* (- 1) x ) ) 0) (>= (+ (* 1 N s_1 ) (* 1 s_0 ) (* 1 s_2 x ) (* 1 s_3 y ) ) 0) ) (>= (+ (* 1 N c_9 ) (* 1 c_10 x ) (* 1 c_11 y ) (* 1 c_8 ) ) 0) )))
(assert (forall ((x Real) (y Real) (N Real) ) (=> (and (>= (+ (* (- 1073741825) 1) (* (- 1) x ) ) 0) (>= (+ (* 1024 1) (* 1 x ) ) 0) (>= (+ (* 1024 1) (* 1 y ) ) 0) (>= (+ (* 1024 1) (* 1 N ) ) 0) (>= (+ (* 1023 1) (* (- 1) N ) ) 0) (>= (+ (* 1023 1) (* (- 1) y ) ) 0) (>= (+ (* 1023 1) (* (- 1) x ) ) 0) (>= (+ (* 1 N s_1 ) (* 1 s_0 ) (* 1 s_2 x ) (* 1 s_3 y ) ) 0) ) (>= (+ (* 1 N s_9 ) (* 1 s_10 x ) (* 1 s_11 y ) (* 1 s_8 ) ) 0) )))
(assert (forall ((x Real) (y Real) (N Real) ) (=> (and (>= (+ (* (- 1073741825) 1) (* (- 1) x ) ) 0) (>= (+ (* 1024 1) (* 1 x ) ) 0) (>= (+ (* 1024 1) (* 1 y ) ) 0) (>= (+ (* 1024 1) (* 1 N ) ) 0) (>= (+ (* 1023 1) (* (- 1) N ) ) 0) (>= (+ (* 1023 1) (* (- 1) y ) ) 0) (>= (+ (* 1023 1) (* (- 1) x ) ) 0) (>= (+ (* 1 N s_1 ) (* 1 s_0 ) (* 1 s_2 x ) (* 1 s_3 y ) ) 0) ) (>= (+ (* 1 N c_9 ) (* 1 c_10 x ) (* 1 c_11 y ) (* 1 c_8 ) ) 0) )))
(assert (forall ((x Real) (y Real) (N Real) ) (=> (and (>= (+ (* 1 N ) (* (- 1) x ) ) 0) (>= (+ (* 1023 1) (* (- 1) N ) ) 0) (>= (+ (* 1024 1) (* 1 N ) ) 0) (>= (+ (* 1023 1) (* 1 y ) ) 0) (>= (+ (* 1023 1) (* 1 x ) ) 0) (>= (+ (* 1 x ) (* 1 y ) ) 0) (>= (+ (* 1 N s_5 ) (* 1 s_4 ) (* 1 s_6 x ) (* 1 s_7 y ) ) 0) ) (>= (+ (* 1 N s_5 ) (* 1 s_4 ) (* 2 s_6 x ) (* 1 s_6 y ) (* 1 s_7 ) (* 1 s_7 y ) ) 0) )))
(assert (forall ((x Real) (y Real) (N Real) ) (=> (and (>= (+ (* 1 N ) (* (- 1) x ) ) 0) (>= (+ (* 1023 1) (* (- 1) N ) ) 0) (>= (+ (* 1024 1) (* 1 N ) ) 0) (>= (+ (* 1023 1) (* 1 y ) ) 0) (>= (+ (* 1023 1) (* 1 x ) ) 0) (>= (+ (* 1 x ) (* 1 y ) ) 0) (>= (+ (* 1 N s_5 ) (* 1 s_4 ) (* 1 s_6 x ) (* 1 s_7 y ) ) 0) ) (>= (+ (* 1 N c_5 ) (* 1 c_4 ) (* 2 c_6 x ) (* 1 c_6 y ) (* 1 c_7 ) (* 1 c_7 y ) ) 0) )))
(assert (forall ((x Real) (y Real) (N Real) ) (=> (and (>= (+ (* 1 N ) (* (- 1) x ) ) 0) (>= (+ (* 1023 1) (* (- 1) N ) ) 0) (>= (+ (* 1024 1) (* 1 N ) ) 0) (>= (+ (* 1023 1) (* 1 y ) ) 0) (>= (+ (* 1023 1) (* 1 x ) ) 0) (>= (+ (* 1 x ) (* 1 y ) ) 0) (>= (+ (* 1 N s_5 ) (* 1 s_4 ) (* 1 s_6 x ) (* 1 s_7 y ) ) 0) ) (>= (+ (* (- 1) 1) (* (- 1) c_6 x ) (* (- 1) c_6 y ) (* (- 1) c_7 ) ) 0) )))
(assert (forall ((x Real) (y Real) (N Real) ) (=> (and (>= (+ (* 1 N ) (* (- 1) x ) ) 0) (>= (+ (* 1023 1) (* (- 1) N ) ) 0) (>= (+ (* 1024 1) (* 1 N ) ) 0) (>= (+ (* 1023 1) (* 1 y ) ) 0) (>= (+ (* 1023 1) (* 1 x ) ) 0) (>= (+ (* 1 x ) (* 1 y ) ) 0) (>= (+ (* 1 N s_5 ) (* 1 s_4 ) (* 1 s_6 x ) (* 1 s_7 y ) ) 0) ) (>= (+ (* 1 N s_5 ) (* 1 s_4 ) (* 1 s_6 ) (* 1 s_6 x ) (* 1 s_7 y ) ) 0) )))
(assert (forall ((x Real) (y Real) (N Real) ) (=> (and (>= (+ (* 1 N ) (* (- 1) x ) ) 0) (>= (+ (* 1023 1) (* (- 1) N ) ) 0) (>= (+ (* 1024 1) (* 1 N ) ) 0) (>= (+ (* 1023 1) (* 1 y ) ) 0) (>= (+ (* 1023 1) (* 1 x ) ) 0) (>= (+ (* 1 x ) (* 1 y ) ) 0) (>= (+ (* 1 N s_5 ) (* 1 s_4 ) (* 1 s_6 x ) (* 1 s_7 y ) ) 0) ) (>= (+ (* 1 N c_5 ) (* 1 c_4 ) (* 1 c_6 ) (* 1 c_6 x ) (* 1 c_7 y ) ) 0) )))
(assert (forall ((x Real) (y Real) (N Real) ) (=> (and (>= (+ (* 1 N ) (* (- 1) x ) ) 0) (>= (+ (* 1023 1) (* (- 1) N ) ) 0) (>= (+ (* 1024 1) (* 1 N ) ) 0) (>= (+ (* 1023 1) (* 1 y ) ) 0) (>= (+ (* 1023 1) (* 1 x ) ) 0) (>= (+ (* 1 x ) (* 1 y ) ) 0) (>= (+ (* 1 N s_5 ) (* 1 s_4 ) (* 1 s_6 x ) (* 1 s_7 y ) ) 0) ) (>= (+ (* (- 1) 1) (* (- 1) c_6 ) ) 0) )))
(assert (forall ((x Real) (y Real) (N Real) ) (=> (and (>= (+ (* (- 1) 1) (* (- 1) N ) (* 1 x ) ) 0) (>= (+ (* 1023 1) (* (- 1) N ) ) 0) (>= (+ (* 1024 1) (* 1 N ) ) 0) (>= (+ (* 1023 1) (* 1 y ) ) 0) (>= (+ (* 1023 1) (* 1 x ) ) 0) (>= (+ (* 1 x ) (* 1 y ) ) 0) (>= (+ (* 1 N s_5 ) (* 1 s_4 ) (* 1 s_6 x ) (* 1 s_7 y ) ) 0) ) (>= (+ (* 1 N s_9 ) (* 1 s_10 x ) (* 1 s_11 y ) (* 1 s_8 ) ) 0) )))
(assert (forall ((x Real) (y Real) (N Real) ) (=> (and (>= (+ (* (- 1) 1) (* (- 1) N ) (* 1 x ) ) 0) (>= (+ (* 1023 1) (* (- 1) N ) ) 0) (>= (+ (* 1024 1) (* 1 N ) ) 0) (>= (+ (* 1023 1) (* 1 y ) ) 0) (>= (+ (* 1023 1) (* 1 x ) ) 0) (>= (+ (* 1 x ) (* 1 y ) ) 0) (>= (+ (* 1 N s_5 ) (* 1 s_4 ) (* 1 s_6 x ) (* 1 s_7 y ) ) 0) ) (>= (+ (* 1 N c_9 ) (* 1 c_10 x ) (* 1 c_11 y ) (* 1 c_8 ) ) 0) )))

(check-sat)
(get-model)
